c 
c constraints in WDIMACS form 
c 
p wcnf 41 284 4398046511104
4398046511104 1 -29 0 
4398046511104 29 -1 14 15 16 18 22 23 25 26 27 28 0 
4398046511104 1 -27 2 3 4 5 6 7 8 0 
4398046511104 1 -26 2 3 4 5 6 7 8 0 
4398046511104 1 -25 3 0 
4398046511104 1 -18 2 3 4 5 6 7 8 0 
4398046511104 1 -16 2 3 4 5 6 7 8 0 
4398046511104 1 -15 2 3 4 5 6 7 8 0 
4398046511104 1 -14 2 3 4 5 6 7 8 0 
4398046511104 24 -8 14 15 16 17 18 19 20 21 22 23 27 26 28 0 
4398046511104 8 -21 2 5 6 7 4 0 
4398046511104 24 -7 14 15 16 17 18 19 20 21 22 23 27 26 28 0 
4398046511104 24 -6 14 15 16 17 18 19 20 21 22 23 27 26 28 0 
4398046511104 10 -13 9 0 
4398046511104 10 -12 9 0 
4398046511104 10 -11 9 0 
4398046511104 24 -4 14 15 16 17 18 19 20 21 22 23 27 26 28 0 
4398046511104 28 -3 14 15 16 17 18 19 20 22 23 24 25 26 27 0 
4398046511104 3 -24 5 6 7 4 8 2 0 
4398046511104 3 -20 5 6 7 4 8 2 0 
4398046511104 3 -19 5 6 7 4 8 2 0 
4398046511104 3 -17 5 6 7 4 8 2 0 
4398046511104 24 -2 14 15 16 17 18 19 20 21 22 23 27 26 28 0 
4398046511104 2 -23 3 4 5 6 7 8 0 
4398046511104 2 -22 3 4 5 6 7 8 0 
4398046511104 -2 -3 0 
4398046511104 -2 -4 0 
4398046511104 -2 -5 0 
4398046511104 -2 -6 0 
4398046511104 -2 -7 0 
4398046511104 -3 -4 0 
4398046511104 -2 -8 0 
4398046511104 -2 -9 0 
4398046511104 -3 -5 0 
4398046511104 -2 -10 0 
4398046511104 -2 -11 0 
4398046511104 -3 -6 0 
4398046511104 -2 -12 0 
4398046511104 -2 -13 0 
4398046511104 -3 -7 0 
4398046511104 -4 -5 0 
4398046511104 -3 -8 0 
4398046511104 -4 -6 0 
4398046511104 -3 -9 0 
4398046511104 -3 -10 0 
4398046511104 -4 -7 0 
4398046511104 -3 -11 0 
4398046511104 -5 -6 0 
4398046511104 -4 -8 0 
4398046511104 -3 -12 0 
4398046511104 -2 -25 0 
4398046511104 -3 -13 0 
4398046511104 -4 -9 0 
4398046511104 -5 -7 0 
4398046511104 -2 -28 0 
4398046511104 -4 -10 0 
4398046511104 -2 -29 0 
4398046511104 -5 -8 0 
4398046511104 -4 -11 0 
4398046511104 -6 -7 0 
4398046511104 -17 -3 0 
4398046511104 -5 -9 0 
4398046511104 -4 -12 0 
4398046511104 -6 -8 0 
4398046511104 -4 -13 0 
4398046511104 -5 -10 0 
4398046511104 -21 -3 0 
4398046511104 -5 -11 0 
4398046511104 -6 -9 0 
4398046511104 -2 -1 0 
4398046511104 1 2 3 4 5 6 7 8 9 10 0 
4398046511104 -7 -8 0 
4398046511104 -5 -12 0 
4398046511104 -6 -10 0 
4398046511104 -5 -13 0 
4398046511104 -7 -9 0 
4398046511104 -6 -11 0 
4398046511104 -7 -10 0 
4398046511104 -6 -12 0 
4398046511104 -3 -29 0 
4398046511104 -8 -9 0 
4398046511104 -6 -13 0 
4398046511104 -7 -11 0 
4398046511104 -8 -10 0 
4398046511104 -7 -12 0 
4398046511104 -8 -11 0 
4398046511104 -4 -25 0 
4398046511104 -7 -13 0 
4398046511104 -9 -10 0 
4398046511104 -8 -12 0 
4398046511104 -4 -28 0 
4398046511104 -3 -1 0 
4398046511104 1 3 -28 0 
4398046511104 -4 -29 0 
4398046511104 -8 -13 0 
4398046511104 -5 -25 0 
4398046511104 -9 -14 0 
4398046511104 -5 -28 0 
4398046511104 -11 -12 0 
4398046511104 -5 -29 0 
4398046511104 -15 -9 0 
4398046511104 -10 -14 0 
4398046511104 -6 -25 0 
4398046511104 -9 -16 0 
4398046511104 -11 -13 0 
4398046511104 -4 -1 0 
4398046511104 -15 -10 0 
4398046511104 -9 -17 0 
4398046511104 -11 -14 0 
4398046511104 -12 -13 0 
4398046511104 -6 -28 0 
4398046511104 -10 -16 0 
4398046511104 -18 -9 0 
4398046511104 -6 -29 0 
4398046511104 -11 -15 0 
4398046511104 -12 -14 0 
4398046511104 -7 -25 0 
4398046511104 -9 -19 0 
4398046511104 -10 -17 0 
4398046511104 -11 -16 0 
4398046511104 -9 -20 0 
4398046511104 -18 -10 0 
4398046511104 -12 -15 0 
4398046511104 -13 -14 0 
4398046511104 -9 -21 0 
4398046511104 -11 -17 0 
4398046511104 -7 -28 0 
4398046511104 -10 -19 0 
4398046511104 -5 -1 0 
4398046511104 -12 -16 0 
4398046511104 -7 -29 0 
4398046511104 -8 -25 0 
4398046511104 -9 -22 0 
4398046511104 -13 -15 0 
4398046511104 -11 -18 0 
4398046511104 -10 -20 0 
4398046511104 -23 -9 0 
4398046511104 -12 -17 0 
4398046511104 -10 -21 0 
4398046511104 -11 -19 0 
4398046511104 -13 -16 0 
4398046511104 -9 -24 0 
4398046511104 -12 -18 0 
4398046511104 -8 -28 0 
4398046511104 -10 -22 0 
4398046511104 -11 -20 0 
4398046511104 -9 -25 0 
4398046511104 -13 -17 0 
4398046511104 -14 -16 0 
4398046511104 -8 -29 0 
4398046511104 -23 -10 0 
4398046511104 -12 -19 0 
4398046511104 -9 -26 0 
4398046511104 -11 -21 0 
4398046511104 -13 -18 0 
4398046511104 -6 -1 0 
4398046511104 -10 -24 0 
4398046511104 -9 -27 0 
4398046511104 -12 -20 0 
4398046511104 -11 -22 0 
4398046511104 -15 -16 0 
4398046511104 -9 -28 0 
4398046511104 -10 -25 0 
4398046511104 -13 -19 0 
4398046511104 -11 -23 0 
4398046511104 -12 -21 0 
4398046511104 -9 -29 0 
4398046511104 -10 -26 0 
4398046511104 -13 -20 0 
4398046511104 -11 -24 0 
4398046511104 -12 -22 0 
4398046511104 -10 -27 0 
4398046511104 -11 -25 0 
4398046511104 -13 -21 0 
4398046511104 -12 -23 0 
4398046511104 -10 -28 0 
4398046511104 -7 -1 0 
4398046511104 -11 -26 0 
4398046511104 -10 -29 0 
4398046511104 -13 -22 0 
4398046511104 -12 -24 0 
4398046511104 -16 -18 0 
4398046511104 -11 -27 0 
4398046511104 -12 -25 0 
4398046511104 -13 -23 0 
4398046511104 -11 -28 0 
4398046511104 -12 -26 0 
4398046511104 -13 -24 0 
4398046511104 -12 -27 0 
4398046511104 -8 -1 0 
4398046511104 -13 -25 0 
4398046511104 -12 -28 0 
4398046511104 -13 -26 0 
4398046511104 -13 -27 0 
4398046511104 -13 -28 0 
4398046511104 -9 -1 0 
4398046511104 -19 -20 0 
4398046511104 -10 -1 0 
4398046511104 -17 -25 0 
4398046511104 -11 -1 0 
4398046511104 -28 -17 0 
4398046511104 -25 -19 0 
4398046511104 -17 -29 0 
4398046511104 -12 -1 0 
4398046511104 -25 -20 0 
4398046511104 -13 -1 0 
4398046511104 -25 -24 0 
4398046511104 -25 -26 0 
4398046511104 -25 -27 0 
4398046511104 -25 -28 0 
4398046511104 -17 -1 0 
4398046511104 -1 -19 0 
4398046511104 -1 -20 0 
4398046511104 -21 -1 0 
4398046511104 30 31 32 33 34 35 36 37 38 39 40 41 9 10 0 
4398046511104 -31 -32 0 
4398046511104 -1 -24 0 
4398046511104 -30 -34 0 
4398046511104 -31 -34 0 
4398046511104 -33 -32 0 
4398046511104 -31 -35 0 
4398046511104 -34 -32 0 
4398046511104 -31 -37 0 
4398046511104 -34 -35 0 
4398046511104 -39 -31 0 
4398046511104 -30 -41 0 
4398046511104 -40 -31 0 
4398046511104 -31 -41 0 
4398046511104 -40 -32 0 
4398046511104 -41 -32 0 
4398046511104 -39 -34 0 
4398046511104 -36 -37 0 
4398046511104 -33 -41 0 
4398046511104 -34 -40 0 
4398046511104 -34 -41 0 
4398046511104 -35 -41 0 
4398046511104 -36 -41 0 
4398046511104 -37 -41 0 
4398046511104 -38 -41 0 
4398046511104 -39 -40 0 
4398046511104 -39 -41 0 
4398046511104 -40 -41 0 
4398046511104 24 -5 33 14 15 16 17 18 19 20 21 22 23 26 27 0 
